NAME : amtsp
TYPE : ATSP
DIMENSION : 8
EDGE_WEIGHT_TYPE : EXPLICIT
EDGE_WEIGHT_FORMAT : FULL_MATRIX
EDGE_WEIGHT_SECTION
100000 -100000 100000 100000 100000 100000 100000 100000 
100000 100000 262 1638 2297 2635 2152 1926 
0 0 100000 466 2200 2388 702 500 
0 0 466 100000 466 702 500 702 
0 0 2200 466 100000 500 702 2388 
0 0 2388 702 500 100000 466 2200 
0 0 702 500 702 466 100000 466 
0 0 500 702 2388 2200 466 100000 
